p cnf 616 2090
c p weight -245 1 0
c p weight 245 -1 0
c p weight 249 6.12323399573676603586882014729198302312846062338790031898128063403419218957424163818359375E-17 0
c p weight -249 1 0
c p weight 250 1 0
c p weight -250 1 0
c p weight -247 1 0
c p weight 247 -1 0
c p weight -251 1 0
c p weight 251 -1 0
c p weight -253 1 0
c p weight 253 -1 0
c p weight -256 1 0
c p weight 256 -1 0
c p weight -259 1 0
c p weight 259 -1 0
c p weight -262 1 0
c p weight 262 -1 0
c p weight -265 1 0
c p weight 265 -1 0
c p weight -268 1 0
c p weight 268 -1 0
c p weight -271 1 0
c p weight 271 -1 0
c p weight -274 1 0
c p weight 274 -1 0
c p weight -277 1 0
c p weight 277 -1 0
c p weight -280 1 0
c p weight 280 -1 0
c p weight -283 1 0
c p weight 283 -1 0
c p weight -286 1 0
c p weight 286 -1 0
c p weight -289 1 0
c p weight 289 -1 0
c p weight -292 1 0
c p weight 292 -1 0
c p weight -295 1 0
c p weight 295 -1 0
c p weight -298 1 0
c p weight 298 -1 0
c p weight -301 1 0
c p weight 301 -1 0
c p weight -304 1 0
c p weight 304 -1 0
c p weight -307 1 0
c p weight 307 -1 0
c p weight -310 1 0
c p weight 310 -1 0
c p weight -313 1 0
c p weight 313 -1 0
c p weight -316 1 0
c p weight 316 -1 0
c p weight -319 1 0
c p weight 319 -1 0
c p weight -322 1 0
c p weight 322 -1 0
c p weight -325 1 0
c p weight 325 -1 0
c p weight -328 1 0
c p weight 328 -1 0
c p weight -331 1 0
c p weight 331 -1 0
c p weight -334 1 0
c p weight 334 -1 0
c p weight -337 1 0
c p weight 337 -1 0
c p weight -340 1 0
c p weight 340 -1 0
c p weight -343 1 0
c p weight 343 -1 0
c p weight -346 1 0
c p weight 346 -1 0
c p weight -349 1 0
c p weight 349 -1 0
c p weight -352 1 0
c p weight 352 -1 0
c p weight -355 1 0
c p weight 355 -1 0
c p weight -358 1 0
c p weight 358 -1 0
c p weight -361 1 0
c p weight 361 -1 0
c p weight -364 1 0
c p weight 364 -1 0
c p weight -367 1 0
c p weight 367 -1 0
c p weight -370 1 0
c p weight 370 -1 0
c p weight -373 1 0
c p weight 373 -1 0
c p weight -376 1 0
c p weight 376 -1 0
c p weight -379 1 0
c p weight 379 -1 0
c p weight -382 1 0
c p weight 382 -1 0
c p weight -385 1 0
c p weight 385 -1 0
c p weight -388 1 0
c p weight 388 -1 0
c p weight -391 1 0
c p weight 391 -1 0
c p weight -394 1 0
c p weight 394 -1 0
c p weight -397 1 0
c p weight 397 -1 0
c p weight -400 1 0
c p weight 400 -1 0
c p weight -403 1 0
c p weight 403 -1 0
c p weight -406 1 0
c p weight 406 -1 0
c p weight -409 1 0
c p weight 409 -1 0
c p weight -412 1 0
c p weight 412 -1 0
c p weight -415 1 0
c p weight 415 -1 0
c p weight -418 1 0
c p weight 418 -1 0
c p weight -421 1 0
c p weight 421 -1 0
c p weight -424 1 0
c p weight 424 -1 0
c p weight -427 1 0
c p weight 427 -1 0
c p weight -430 1 0
c p weight 430 -1 0
c p weight -433 1 0
c p weight 433 -1 0
c p weight -436 1 0
c p weight 436 -1 0
c p weight -439 1 0
c p weight 439 -1 0
c p weight -442 1 0
c p weight 442 -1 0
c p weight -445 1 0
c p weight 445 -1 0
c p weight -448 1 0
c p weight 448 -1 0
c p weight -451 1 0
c p weight 451 -1 0
c p weight -454 1 0
c p weight 454 -1 0
c p weight -457 1 0
c p weight 457 -1 0
c p weight -460 1 0
c p weight 460 -1 0
c p weight -463 1 0
c p weight 463 -1 0
c p weight -466 1 0
c p weight 466 -1 0
c p weight -469 1 0
c p weight 469 -1 0
c p weight -472 1 0
c p weight 472 -1 0
c p weight -475 1 0
c p weight 475 -1 0
c p weight -478 1 0
c p weight 478 -1 0
c p weight -481 1 0
c p weight 481 -1 0
c p weight -484 1 0
c p weight 484 -1 0
c p weight -487 1 0
c p weight 487 -1 0
c p weight -490 1 0
c p weight 490 -1 0
c p weight -493 1 0
c p weight 493 -1 0
c p weight -496 1 0
c p weight 496 -1 0
c p weight -499 1 0
c p weight 499 -1 0
c p weight -502 1 0
c p weight 502 -1 0
c p weight -505 1 0
c p weight 505 -1 0
c p weight -508 1 0
c p weight 508 -1 0
c p weight -511 1 0
c p weight 511 -1 0
c p weight -514 1 0
c p weight 514 -1 0
c p weight -517 1 0
c p weight 517 -1 0
c p weight -520 1 0
c p weight 520 -1 0
c p weight -523 1 0
c p weight 523 -1 0
c p weight -526 1 0
c p weight 526 -1 0
c p weight -529 1 0
c p weight 529 -1 0
c p weight -532 1 0
c p weight 532 -1 0
c p weight -535 1 0
c p weight 535 -1 0
c p weight -538 1 0
c p weight 538 -1 0
c p weight -541 1 0
c p weight 541 -1 0
c p weight -544 1 0
c p weight 544 -1 0
c p weight -547 1 0
c p weight 547 -1 0
c p weight -550 1 0
c p weight 550 -1 0
c p weight -553 1 0
c p weight 553 -1 0
c p weight -556 1 0
c p weight 556 -1 0
c p weight -559 1 0
c p weight 559 -1 0
c p weight -562 1 0
c p weight 562 -1 0
c p weight -565 1 0
c p weight 565 -1 0
c p weight -568 1 0
c p weight 568 -1 0
c p weight -571 1 0
c p weight 571 -1 0
c p weight -574 1 0
c p weight 574 -1 0
c p weight -577 1 0
c p weight 577 -1 0
c p weight -580 1 0
c p weight 580 -1 0
c p weight -583 1 0
c p weight 583 -1 0
c p weight -586 1 0
c p weight 586 -1 0
c p weight -589 1 0
c p weight 589 -1 0
c p weight -592 1 0
c p weight 592 -1 0
c p weight -595 1 0
c p weight 595 -1 0
c p weight -598 1 0
c p weight 598 -1 0
c p weight -601 1 0
c p weight 601 -1 0
c p weight -604 1 0
c p weight 604 -1 0
c p weight -607 1 0
c p weight 607 -1 0
c p weight -610 1 0
c p weight 610 -1 0
c p weight -613 1 0
c p weight 613 -1 0
c p weight 616 0.5 0
c p weight -616 1 0
616 0
-243 0
-241 0
-239 0
-237 0
-235 0
-233 0
-231 0
-229 0
-227 0
-225 0
-223 0
-221 0
-219 0
-217 0
-215 0
-213 0
-211 0
-209 0
-207 0
-205 0
-203 0
-201 0
-199 0
-197 0
-195 0
-193 0
-191 0
-189 0
-187 0
-185 0
-183 0
-181 0
-179 0
-177 0
-175 0
-173 0
-171 0
-169 0
-167 0
-165 0
-163 0
-161 0
-159 0
-157 0
-155 0
-153 0
-151 0
-149 0
-147 0
-145 0
-143 0
-141 0
-139 0
-137 0
-135 0
-133 0
-131 0
-129 0
-127 0
-125 0
-123 0
-121 0
-119 0
-117 0
-115 0
-113 0
-111 0
-109 0
-107 0
-105 0
-103 0
-101 0
-99 0
-97 0
-95 0
-93 0
-91 0
-89 0
-87 0
-85 0
-83 0
-81 0
-79 0
-77 0
-75 0
-73 0
-71 0
-69 0
-67 0
-65 0
-63 0
-61 0
-59 0
-57 0
-55 0
-53 0
-51 0
-49 0
-47 0
-45 0
-43 0
-41 0
-39 0
-37 0
-35 0
-33 0
-31 0
-29 0
-27 0
-25 0
-23 0
-21 0
-19 0
-17 0
-15 0
-13 0
-11 0
-9 0
-7 0
-5 0
-3 0
-1 0
-245 243 0
-245 244 0
245 -243 -244 0
246 243 -244 0
246 -243 244 0
-246 243 244 0
-246 -243 -244 0
-247 248 0
-247 246 0
-247 -243 0
247 -248 243 -246 0
248 -243 246 0
-248 243 246 0
-249 246 0
248 -249 -243 0
-248 -249 243 0
248 249 243 -246 0
-248 249 -243 -246 0
-250 246 0
248 -250 243 0
-248 -250 -243 0
248 250 -243 -246 0
-248 250 243 -246 0
-251 248 0
-251 246 0
251 -248 -246 0
252 248 -246 0
252 -248 246 0
-252 248 246 0
-252 -248 -246 0
-253 248 0
-253 242 0
-253 241 -252 0
-253 -241 252 0
253 -248 241 252 -242 0
253 -248 -241 -252 -242 0
255 248 -241 0
255 -248 241 0
-255 248 241 0
-255 -248 -241 0
254 252 -242 0
254 -252 242 0
-254 252 242 0
-254 -252 -242 0
-256 255 0
-256 240 0
-256 239 -242 0
-256 -239 242 0
256 -255 239 242 -240 0
256 -255 -239 -242 -240 0
258 255 -239 0
258 -255 239 0
-258 255 239 0
-258 -255 -239 0
257 242 -240 0
257 -242 240 0
-257 242 240 0
-257 -242 -240 0
-259 258 0
-259 238 0
-259 237 -240 0
-259 -237 240 0
259 -258 237 240 -238 0
259 -258 -237 -240 -238 0
261 258 -237 0
261 -258 237 0
-261 258 237 0
-261 -258 -237 0
260 240 -238 0
260 -240 238 0
-260 240 238 0
-260 -240 -238 0
-262 261 0
-262 236 0
-262 235 -238 0
-262 -235 238 0
262 -261 235 238 -236 0
262 -261 -235 -238 -236 0
264 261 -235 0
264 -261 235 0
-264 261 235 0
-264 -261 -235 0
263 238 -236 0
263 -238 236 0
-263 238 236 0
-263 -238 -236 0
-265 264 0
-265 234 0
-265 233 -236 0
-265 -233 236 0
265 -264 233 236 -234 0
265 -264 -233 -236 -234 0
267 264 -233 0
267 -264 233 0
-267 264 233 0
-267 -264 -233 0
266 236 -234 0
266 -236 234 0
-266 236 234 0
-266 -236 -234 0
-268 267 0
-268 232 0
-268 231 -234 0
-268 -231 234 0
268 -267 231 234 -232 0
268 -267 -231 -234 -232 0
270 267 -231 0
270 -267 231 0
-270 267 231 0
-270 -267 -231 0
269 234 -232 0
269 -234 232 0
-269 234 232 0
-269 -234 -232 0
-271 270 0
-271 230 0
-271 229 -232 0
-271 -229 232 0
271 -270 229 232 -230 0
271 -270 -229 -232 -230 0
273 270 -229 0
273 -270 229 0
-273 270 229 0
-273 -270 -229 0
272 232 -230 0
272 -232 230 0
-272 232 230 0
-272 -232 -230 0
-274 273 0
-274 228 0
-274 227 -230 0
-274 -227 230 0
274 -273 227 230 -228 0
274 -273 -227 -230 -228 0
276 273 -227 0
276 -273 227 0
-276 273 227 0
-276 -273 -227 0
275 230 -228 0
275 -230 228 0
-275 230 228 0
-275 -230 -228 0
-277 276 0
-277 226 0
-277 225 -228 0
-277 -225 228 0
277 -276 225 228 -226 0
277 -276 -225 -228 -226 0
279 276 -225 0
279 -276 225 0
-279 276 225 0
-279 -276 -225 0
278 228 -226 0
278 -228 226 0
-278 228 226 0
-278 -228 -226 0
-280 279 0
-280 224 0
-280 223 -226 0
-280 -223 226 0
280 -279 223 226 -224 0
280 -279 -223 -226 -224 0
282 279 -223 0
282 -279 223 0
-282 279 223 0
-282 -279 -223 0
281 226 -224 0
281 -226 224 0
-281 226 224 0
-281 -226 -224 0
-283 282 0
-283 222 0
-283 221 -224 0
-283 -221 224 0
283 -282 221 224 -222 0
283 -282 -221 -224 -222 0
285 282 -221 0
285 -282 221 0
-285 282 221 0
-285 -282 -221 0
284 224 -222 0
284 -224 222 0
-284 224 222 0
-284 -224 -222 0
-286 285 0
-286 220 0
-286 219 -222 0
-286 -219 222 0
286 -285 219 222 -220 0
286 -285 -219 -222 -220 0
288 285 -219 0
288 -285 219 0
-288 285 219 0
-288 -285 -219 0
287 222 -220 0
287 -222 220 0
-287 222 220 0
-287 -222 -220 0
-289 288 0
-289 218 0
-289 217 -220 0
-289 -217 220 0
289 -288 217 220 -218 0
289 -288 -217 -220 -218 0
291 288 -217 0
291 -288 217 0
-291 288 217 0
-291 -288 -217 0
290 220 -218 0
290 -220 218 0
-290 220 218 0
-290 -220 -218 0
-292 291 0
-292 216 0
-292 215 -218 0
-292 -215 218 0
292 -291 215 218 -216 0
292 -291 -215 -218 -216 0
294 291 -215 0
294 -291 215 0
-294 291 215 0
-294 -291 -215 0
293 218 -216 0
293 -218 216 0
-293 218 216 0
-293 -218 -216 0
-295 294 0
-295 214 0
-295 213 -216 0
-295 -213 216 0
295 -294 213 216 -214 0
295 -294 -213 -216 -214 0
297 294 -213 0
297 -294 213 0
-297 294 213 0
-297 -294 -213 0
296 216 -214 0
296 -216 214 0
-296 216 214 0
-296 -216 -214 0
-298 297 0
-298 212 0
-298 211 -214 0
-298 -211 214 0
298 -297 211 214 -212 0
298 -297 -211 -214 -212 0
300 297 -211 0
300 -297 211 0
-300 297 211 0
-300 -297 -211 0
299 214 -212 0
299 -214 212 0
-299 214 212 0
-299 -214 -212 0
-301 300 0
-301 210 0
-301 209 -212 0
-301 -209 212 0
301 -300 209 212 -210 0
301 -300 -209 -212 -210 0
303 300 -209 0
303 -300 209 0
-303 300 209 0
-303 -300 -209 0
302 212 -210 0
302 -212 210 0
-302 212 210 0
-302 -212 -210 0
-304 303 0
-304 208 0
-304 207 -210 0
-304 -207 210 0
304 -303 207 210 -208 0
304 -303 -207 -210 -208 0
306 303 -207 0
306 -303 207 0
-306 303 207 0
-306 -303 -207 0
305 210 -208 0
305 -210 208 0
-305 210 208 0
-305 -210 -208 0
-307 306 0
-307 206 0
-307 205 -208 0
-307 -205 208 0
307 -306 205 208 -206 0
307 -306 -205 -208 -206 0
309 306 -205 0
309 -306 205 0
-309 306 205 0
-309 -306 -205 0
308 208 -206 0
308 -208 206 0
-308 208 206 0
-308 -208 -206 0
-310 309 0
-310 204 0
-310 203 -206 0
-310 -203 206 0
310 -309 203 206 -204 0
310 -309 -203 -206 -204 0
312 309 -203 0
312 -309 203 0
-312 309 203 0
-312 -309 -203 0
311 206 -204 0
311 -206 204 0
-311 206 204 0
-311 -206 -204 0
-313 312 0
-313 202 0
-313 201 -204 0
-313 -201 204 0
313 -312 201 204 -202 0
313 -312 -201 -204 -202 0
315 312 -201 0
315 -312 201 0
-315 312 201 0
-315 -312 -201 0
314 204 -202 0
314 -204 202 0
-314 204 202 0
-314 -204 -202 0
-316 315 0
-316 200 0
-316 199 -202 0
-316 -199 202 0
316 -315 199 202 -200 0
316 -315 -199 -202 -200 0
318 315 -199 0
318 -315 199 0
-318 315 199 0
-318 -315 -199 0
317 202 -200 0
317 -202 200 0
-317 202 200 0
-317 -202 -200 0
-319 318 0
-319 198 0
-319 197 -200 0
-319 -197 200 0
319 -318 197 200 -198 0
319 -318 -197 -200 -198 0
321 318 -197 0
321 -318 197 0
-321 318 197 0
-321 -318 -197 0
320 200 -198 0
320 -200 198 0
-320 200 198 0
-320 -200 -198 0
-322 321 0
-322 196 0
-322 195 -198 0
-322 -195 198 0
322 -321 195 198 -196 0
322 -321 -195 -198 -196 0
324 321 -195 0
324 -321 195 0
-324 321 195 0
-324 -321 -195 0
323 198 -196 0
323 -198 196 0
-323 198 196 0
-323 -198 -196 0
-325 324 0
-325 194 0
-325 193 -196 0
-325 -193 196 0
325 -324 193 196 -194 0
325 -324 -193 -196 -194 0
327 324 -193 0
327 -324 193 0
-327 324 193 0
-327 -324 -193 0
326 196 -194 0
326 -196 194 0
-326 196 194 0
-326 -196 -194 0
-328 327 0
-328 192 0
-328 191 -194 0
-328 -191 194 0
328 -327 191 194 -192 0
328 -327 -191 -194 -192 0
330 327 -191 0
330 -327 191 0
-330 327 191 0
-330 -327 -191 0
329 194 -192 0
329 -194 192 0
-329 194 192 0
-329 -194 -192 0
-331 330 0
-331 190 0
-331 189 -192 0
-331 -189 192 0
331 -330 189 192 -190 0
331 -330 -189 -192 -190 0
333 330 -189 0
333 -330 189 0
-333 330 189 0
-333 -330 -189 0
332 192 -190 0
332 -192 190 0
-332 192 190 0
-332 -192 -190 0
-334 333 0
-334 188 0
-334 187 -190 0
-334 -187 190 0
334 -333 187 190 -188 0
334 -333 -187 -190 -188 0
336 333 -187 0
336 -333 187 0
-336 333 187 0
-336 -333 -187 0
335 190 -188 0
335 -190 188 0
-335 190 188 0
-335 -190 -188 0
-337 336 0
-337 186 0
-337 185 -188 0
-337 -185 188 0
337 -336 185 188 -186 0
337 -336 -185 -188 -186 0
339 336 -185 0
339 -336 185 0
-339 336 185 0
-339 -336 -185 0
338 188 -186 0
338 -188 186 0
-338 188 186 0
-338 -188 -186 0
-340 339 0
-340 184 0
-340 183 -186 0
-340 -183 186 0
340 -339 183 186 -184 0
340 -339 -183 -186 -184 0
342 339 -183 0
342 -339 183 0
-342 339 183 0
-342 -339 -183 0
341 186 -184 0
341 -186 184 0
-341 186 184 0
-341 -186 -184 0
-343 342 0
-343 182 0
-343 181 -184 0
-343 -181 184 0
343 -342 181 184 -182 0
343 -342 -181 -184 -182 0
345 342 -181 0
345 -342 181 0
-345 342 181 0
-345 -342 -181 0
344 184 -182 0
344 -184 182 0
-344 184 182 0
-344 -184 -182 0
-346 345 0
-346 180 0
-346 179 -182 0
-346 -179 182 0
346 -345 179 182 -180 0
346 -345 -179 -182 -180 0
348 345 -179 0
348 -345 179 0
-348 345 179 0
-348 -345 -179 0
347 182 -180 0
347 -182 180 0
-347 182 180 0
-347 -182 -180 0
-349 348 0
-349 178 0
-349 177 -180 0
-349 -177 180 0
349 -348 177 180 -178 0
349 -348 -177 -180 -178 0
351 348 -177 0
351 -348 177 0
-351 348 177 0
-351 -348 -177 0
350 180 -178 0
350 -180 178 0
-350 180 178 0
-350 -180 -178 0
-352 351 0
-352 176 0
-352 175 -178 0
-352 -175 178 0
352 -351 175 178 -176 0
352 -351 -175 -178 -176 0
354 351 -175 0
354 -351 175 0
-354 351 175 0
-354 -351 -175 0
353 178 -176 0
353 -178 176 0
-353 178 176 0
-353 -178 -176 0
-355 354 0
-355 174 0
-355 173 -176 0
-355 -173 176 0
355 -354 173 176 -174 0
355 -354 -173 -176 -174 0
357 354 -173 0
357 -354 173 0
-357 354 173 0
-357 -354 -173 0
356 176 -174 0
356 -176 174 0
-356 176 174 0
-356 -176 -174 0
-358 357 0
-358 172 0
-358 171 -174 0
-358 -171 174 0
358 -357 171 174 -172 0
358 -357 -171 -174 -172 0
360 357 -171 0
360 -357 171 0
-360 357 171 0
-360 -357 -171 0
359 174 -172 0
359 -174 172 0
-359 174 172 0
-359 -174 -172 0
-361 360 0
-361 170 0
-361 169 -172 0
-361 -169 172 0
361 -360 169 172 -170 0
361 -360 -169 -172 -170 0
363 360 -169 0
363 -360 169 0
-363 360 169 0
-363 -360 -169 0
362 172 -170 0
362 -172 170 0
-362 172 170 0
-362 -172 -170 0
-364 363 0
-364 168 0
-364 167 -170 0
-364 -167 170 0
364 -363 167 170 -168 0
364 -363 -167 -170 -168 0
366 363 -167 0
366 -363 167 0
-366 363 167 0
-366 -363 -167 0
365 170 -168 0
365 -170 168 0
-365 170 168 0
-365 -170 -168 0
-367 366 0
-367 166 0
-367 165 -168 0
-367 -165 168 0
367 -366 165 168 -166 0
367 -366 -165 -168 -166 0
369 366 -165 0
369 -366 165 0
-369 366 165 0
-369 -366 -165 0
368 168 -166 0
368 -168 166 0
-368 168 166 0
-368 -168 -166 0
-370 369 0
-370 164 0
-370 163 -166 0
-370 -163 166 0
370 -369 163 166 -164 0
370 -369 -163 -166 -164 0
372 369 -163 0
372 -369 163 0
-372 369 163 0
-372 -369 -163 0
371 166 -164 0
371 -166 164 0
-371 166 164 0
-371 -166 -164 0
-373 372 0
-373 162 0
-373 161 -164 0
-373 -161 164 0
373 -372 161 164 -162 0
373 -372 -161 -164 -162 0
375 372 -161 0
375 -372 161 0
-375 372 161 0
-375 -372 -161 0
374 164 -162 0
374 -164 162 0
-374 164 162 0
-374 -164 -162 0
-376 375 0
-376 160 0
-376 159 -162 0
-376 -159 162 0
376 -375 159 162 -160 0
376 -375 -159 -162 -160 0
378 375 -159 0
378 -375 159 0
-378 375 159 0
-378 -375 -159 0
377 162 -160 0
377 -162 160 0
-377 162 160 0
-377 -162 -160 0
-379 378 0
-379 158 0
-379 157 -160 0
-379 -157 160 0
379 -378 157 160 -158 0
379 -378 -157 -160 -158 0
381 378 -157 0
381 -378 157 0
-381 378 157 0
-381 -378 -157 0
380 160 -158 0
380 -160 158 0
-380 160 158 0
-380 -160 -158 0
-382 381 0
-382 156 0
-382 155 -158 0
-382 -155 158 0
382 -381 155 158 -156 0
382 -381 -155 -158 -156 0
384 381 -155 0
384 -381 155 0
-384 381 155 0
-384 -381 -155 0
383 158 -156 0
383 -158 156 0
-383 158 156 0
-383 -158 -156 0
-385 384 0
-385 154 0
-385 153 -156 0
-385 -153 156 0
385 -384 153 156 -154 0
385 -384 -153 -156 -154 0
387 384 -153 0
387 -384 153 0
-387 384 153 0
-387 -384 -153 0
386 156 -154 0
386 -156 154 0
-386 156 154 0
-386 -156 -154 0
-388 387 0
-388 152 0
-388 151 -154 0
-388 -151 154 0
388 -387 151 154 -152 0
388 -387 -151 -154 -152 0
390 387 -151 0
390 -387 151 0
-390 387 151 0
-390 -387 -151 0
389 154 -152 0
389 -154 152 0
-389 154 152 0
-389 -154 -152 0
-391 390 0
-391 150 0
-391 149 -152 0
-391 -149 152 0
391 -390 149 152 -150 0
391 -390 -149 -152 -150 0
393 390 -149 0
393 -390 149 0
-393 390 149 0
-393 -390 -149 0
392 152 -150 0
392 -152 150 0
-392 152 150 0
-392 -152 -150 0
-394 393 0
-394 148 0
-394 147 -150 0
-394 -147 150 0
394 -393 147 150 -148 0
394 -393 -147 -150 -148 0
396 393 -147 0
396 -393 147 0
-396 393 147 0
-396 -393 -147 0
395 150 -148 0
395 -150 148 0
-395 150 148 0
-395 -150 -148 0
-397 396 0
-397 146 0
-397 145 -148 0
-397 -145 148 0
397 -396 145 148 -146 0
397 -396 -145 -148 -146 0
399 396 -145 0
399 -396 145 0
-399 396 145 0
-399 -396 -145 0
398 148 -146 0
398 -148 146 0
-398 148 146 0
-398 -148 -146 0
-400 399 0
-400 144 0
-400 143 -146 0
-400 -143 146 0
400 -399 143 146 -144 0
400 -399 -143 -146 -144 0
402 399 -143 0
402 -399 143 0
-402 399 143 0
-402 -399 -143 0
401 146 -144 0
401 -146 144 0
-401 146 144 0
-401 -146 -144 0
-403 402 0
-403 142 0
-403 141 -144 0
-403 -141 144 0
403 -402 141 144 -142 0
403 -402 -141 -144 -142 0
405 402 -141 0
405 -402 141 0
-405 402 141 0
-405 -402 -141 0
404 144 -142 0
404 -144 142 0
-404 144 142 0
-404 -144 -142 0
-406 405 0
-406 140 0
-406 139 -142 0
-406 -139 142 0
406 -405 139 142 -140 0
406 -405 -139 -142 -140 0
408 405 -139 0
408 -405 139 0
-408 405 139 0
-408 -405 -139 0
407 142 -140 0
407 -142 140 0
-407 142 140 0
-407 -142 -140 0
-409 408 0
-409 138 0
-409 137 -140 0
-409 -137 140 0
409 -408 137 140 -138 0
409 -408 -137 -140 -138 0
411 408 -137 0
411 -408 137 0
-411 408 137 0
-411 -408 -137 0
410 140 -138 0
410 -140 138 0
-410 140 138 0
-410 -140 -138 0
-412 411 0
-412 136 0
-412 135 -138 0
-412 -135 138 0
412 -411 135 138 -136 0
412 -411 -135 -138 -136 0
414 411 -135 0
414 -411 135 0
-414 411 135 0
-414 -411 -135 0
413 138 -136 0
413 -138 136 0
-413 138 136 0
-413 -138 -136 0
-415 414 0
-415 134 0
-415 133 -136 0
-415 -133 136 0
415 -414 133 136 -134 0
415 -414 -133 -136 -134 0
417 414 -133 0
417 -414 133 0
-417 414 133 0
-417 -414 -133 0
416 136 -134 0
416 -136 134 0
-416 136 134 0
-416 -136 -134 0
-418 417 0
-418 132 0
-418 131 -134 0
-418 -131 134 0
418 -417 131 134 -132 0
418 -417 -131 -134 -132 0
420 417 -131 0
420 -417 131 0
-420 417 131 0
-420 -417 -131 0
419 134 -132 0
419 -134 132 0
-419 134 132 0
-419 -134 -132 0
-421 420 0
-421 130 0
-421 129 -132 0
-421 -129 132 0
421 -420 129 132 -130 0
421 -420 -129 -132 -130 0
423 420 -129 0
423 -420 129 0
-423 420 129 0
-423 -420 -129 0
422 132 -130 0
422 -132 130 0
-422 132 130 0
-422 -132 -130 0
-424 423 0
-424 128 0
-424 127 -130 0
-424 -127 130 0
424 -423 127 130 -128 0
424 -423 -127 -130 -128 0
426 423 -127 0
426 -423 127 0
-426 423 127 0
-426 -423 -127 0
425 130 -128 0
425 -130 128 0
-425 130 128 0
-425 -130 -128 0
-427 426 0
-427 126 0
-427 125 -128 0
-427 -125 128 0
427 -426 125 128 -126 0
427 -426 -125 -128 -126 0
429 426 -125 0
429 -426 125 0
-429 426 125 0
-429 -426 -125 0
428 128 -126 0
428 -128 126 0
-428 128 126 0
-428 -128 -126 0
-430 429 0
-430 124 0
-430 123 -126 0
-430 -123 126 0
430 -429 123 126 -124 0
430 -429 -123 -126 -124 0
432 429 -123 0
432 -429 123 0
-432 429 123 0
-432 -429 -123 0
431 126 -124 0
431 -126 124 0
-431 126 124 0
-431 -126 -124 0
-433 432 0
-433 122 0
-433 121 -124 0
-433 -121 124 0
433 -432 121 124 -122 0
433 -432 -121 -124 -122 0
435 432 -121 0
435 -432 121 0
-435 432 121 0
-435 -432 -121 0
434 124 -122 0
434 -124 122 0
-434 124 122 0
-434 -124 -122 0
-436 435 0
-436 120 0
-436 119 -122 0
-436 -119 122 0
436 -435 119 122 -120 0
436 -435 -119 -122 -120 0
438 435 -119 0
438 -435 119 0
-438 435 119 0
-438 -435 -119 0
437 122 -120 0
437 -122 120 0
-437 122 120 0
-437 -122 -120 0
-439 438 0
-439 118 0
-439 117 -120 0
-439 -117 120 0
439 -438 117 120 -118 0
439 -438 -117 -120 -118 0
441 438 -117 0
441 -438 117 0
-441 438 117 0
-441 -438 -117 0
440 120 -118 0
440 -120 118 0
-440 120 118 0
-440 -120 -118 0
-442 441 0
-442 116 0
-442 115 -118 0
-442 -115 118 0
442 -441 115 118 -116 0
442 -441 -115 -118 -116 0
444 441 -115 0
444 -441 115 0
-444 441 115 0
-444 -441 -115 0
443 118 -116 0
443 -118 116 0
-443 118 116 0
-443 -118 -116 0
-445 444 0
-445 114 0
-445 113 -116 0
-445 -113 116 0
445 -444 113 116 -114 0
445 -444 -113 -116 -114 0
447 444 -113 0
447 -444 113 0
-447 444 113 0
-447 -444 -113 0
446 116 -114 0
446 -116 114 0
-446 116 114 0
-446 -116 -114 0
-448 447 0
-448 112 0
-448 111 -114 0
-448 -111 114 0
448 -447 111 114 -112 0
448 -447 -111 -114 -112 0
450 447 -111 0
450 -447 111 0
-450 447 111 0
-450 -447 -111 0
449 114 -112 0
449 -114 112 0
-449 114 112 0
-449 -114 -112 0
-451 450 0
-451 110 0
-451 109 -112 0
-451 -109 112 0
451 -450 109 112 -110 0
451 -450 -109 -112 -110 0
453 450 -109 0
453 -450 109 0
-453 450 109 0
-453 -450 -109 0
452 112 -110 0
452 -112 110 0
-452 112 110 0
-452 -112 -110 0
-454 453 0
-454 108 0
-454 107 -110 0
-454 -107 110 0
454 -453 107 110 -108 0
454 -453 -107 -110 -108 0
456 453 -107 0
456 -453 107 0
-456 453 107 0
-456 -453 -107 0
455 110 -108 0
455 -110 108 0
-455 110 108 0
-455 -110 -108 0
-457 456 0
-457 106 0
-457 105 -108 0
-457 -105 108 0
457 -456 105 108 -106 0
457 -456 -105 -108 -106 0
459 456 -105 0
459 -456 105 0
-459 456 105 0
-459 -456 -105 0
458 108 -106 0
458 -108 106 0
-458 108 106 0
-458 -108 -106 0
-460 459 0
-460 104 0
-460 103 -106 0
-460 -103 106 0
460 -459 103 106 -104 0
460 -459 -103 -106 -104 0
462 459 -103 0
462 -459 103 0
-462 459 103 0
-462 -459 -103 0
461 106 -104 0
461 -106 104 0
-461 106 104 0
-461 -106 -104 0
-463 462 0
-463 102 0
-463 101 -104 0
-463 -101 104 0
463 -462 101 104 -102 0
463 -462 -101 -104 -102 0
465 462 -101 0
465 -462 101 0
-465 462 101 0
-465 -462 -101 0
464 104 -102 0
464 -104 102 0
-464 104 102 0
-464 -104 -102 0
-466 465 0
-466 100 0
-466 99 -102 0
-466 -99 102 0
466 -465 99 102 -100 0
466 -465 -99 -102 -100 0
468 465 -99 0
468 -465 99 0
-468 465 99 0
-468 -465 -99 0
467 102 -100 0
467 -102 100 0
-467 102 100 0
-467 -102 -100 0
-469 468 0
-469 98 0
-469 97 -100 0
-469 -97 100 0
469 -468 97 100 -98 0
469 -468 -97 -100 -98 0
471 468 -97 0
471 -468 97 0
-471 468 97 0
-471 -468 -97 0
470 100 -98 0
470 -100 98 0
-470 100 98 0
-470 -100 -98 0
-472 471 0
-472 96 0
-472 95 -98 0
-472 -95 98 0
472 -471 95 98 -96 0
472 -471 -95 -98 -96 0
474 471 -95 0
474 -471 95 0
-474 471 95 0
-474 -471 -95 0
473 98 -96 0
473 -98 96 0
-473 98 96 0
-473 -98 -96 0
-475 474 0
-475 94 0
-475 93 -96 0
-475 -93 96 0
475 -474 93 96 -94 0
475 -474 -93 -96 -94 0
477 474 -93 0
477 -474 93 0
-477 474 93 0
-477 -474 -93 0
476 96 -94 0
476 -96 94 0
-476 96 94 0
-476 -96 -94 0
-478 477 0
-478 92 0
-478 91 -94 0
-478 -91 94 0
478 -477 91 94 -92 0
478 -477 -91 -94 -92 0
480 477 -91 0
480 -477 91 0
-480 477 91 0
-480 -477 -91 0
479 94 -92 0
479 -94 92 0
-479 94 92 0
-479 -94 -92 0
-481 480 0
-481 90 0
-481 89 -92 0
-481 -89 92 0
481 -480 89 92 -90 0
481 -480 -89 -92 -90 0
483 480 -89 0
483 -480 89 0
-483 480 89 0
-483 -480 -89 0
482 92 -90 0
482 -92 90 0
-482 92 90 0
-482 -92 -90 0
-484 483 0
-484 88 0
-484 87 -90 0
-484 -87 90 0
484 -483 87 90 -88 0
484 -483 -87 -90 -88 0
486 483 -87 0
486 -483 87 0
-486 483 87 0
-486 -483 -87 0
485 90 -88 0
485 -90 88 0
-485 90 88 0
-485 -90 -88 0
-487 486 0
-487 86 0
-487 85 -88 0
-487 -85 88 0
487 -486 85 88 -86 0
487 -486 -85 -88 -86 0
489 486 -85 0
489 -486 85 0
-489 486 85 0
-489 -486 -85 0
488 88 -86 0
488 -88 86 0
-488 88 86 0
-488 -88 -86 0
-490 489 0
-490 84 0
-490 83 -86 0
-490 -83 86 0
490 -489 83 86 -84 0
490 -489 -83 -86 -84 0
492 489 -83 0
492 -489 83 0
-492 489 83 0
-492 -489 -83 0
491 86 -84 0
491 -86 84 0
-491 86 84 0
-491 -86 -84 0
-493 492 0
-493 82 0
-493 81 -84 0
-493 -81 84 0
493 -492 81 84 -82 0
493 -492 -81 -84 -82 0
495 492 -81 0
495 -492 81 0
-495 492 81 0
-495 -492 -81 0
494 84 -82 0
494 -84 82 0
-494 84 82 0
-494 -84 -82 0
-496 495 0
-496 80 0
-496 79 -82 0
-496 -79 82 0
496 -495 79 82 -80 0
496 -495 -79 -82 -80 0
498 495 -79 0
498 -495 79 0
-498 495 79 0
-498 -495 -79 0
497 82 -80 0
497 -82 80 0
-497 82 80 0
-497 -82 -80 0
-499 498 0
-499 78 0
-499 77 -80 0
-499 -77 80 0
499 -498 77 80 -78 0
499 -498 -77 -80 -78 0
501 498 -77 0
501 -498 77 0
-501 498 77 0
-501 -498 -77 0
500 80 -78 0
500 -80 78 0
-500 80 78 0
-500 -80 -78 0
-502 501 0
-502 76 0
-502 75 -78 0
-502 -75 78 0
502 -501 75 78 -76 0
502 -501 -75 -78 -76 0
504 501 -75 0
504 -501 75 0
-504 501 75 0
-504 -501 -75 0
503 78 -76 0
503 -78 76 0
-503 78 76 0
-503 -78 -76 0
-505 504 0
-505 74 0
-505 73 -76 0
-505 -73 76 0
505 -504 73 76 -74 0
505 -504 -73 -76 -74 0
507 504 -73 0
507 -504 73 0
-507 504 73 0
-507 -504 -73 0
506 76 -74 0
506 -76 74 0
-506 76 74 0
-506 -76 -74 0
-508 507 0
-508 72 0
-508 71 -74 0
-508 -71 74 0
508 -507 71 74 -72 0
508 -507 -71 -74 -72 0
510 507 -71 0
510 -507 71 0
-510 507 71 0
-510 -507 -71 0
509 74 -72 0
509 -74 72 0
-509 74 72 0
-509 -74 -72 0
-511 510 0
-511 70 0
-511 69 -72 0
-511 -69 72 0
511 -510 69 72 -70 0
511 -510 -69 -72 -70 0
513 510 -69 0
513 -510 69 0
-513 510 69 0
-513 -510 -69 0
512 72 -70 0
512 -72 70 0
-512 72 70 0
-512 -72 -70 0
-514 513 0
-514 68 0
-514 67 -70 0
-514 -67 70 0
514 -513 67 70 -68 0
514 -513 -67 -70 -68 0
516 513 -67 0
516 -513 67 0
-516 513 67 0
-516 -513 -67 0
515 70 -68 0
515 -70 68 0
-515 70 68 0
-515 -70 -68 0
-517 516 0
-517 66 0
-517 65 -68 0
-517 -65 68 0
517 -516 65 68 -66 0
517 -516 -65 -68 -66 0
519 516 -65 0
519 -516 65 0
-519 516 65 0
-519 -516 -65 0
518 68 -66 0
518 -68 66 0
-518 68 66 0
-518 -68 -66 0
-520 519 0
-520 64 0
-520 63 -66 0
-520 -63 66 0
520 -519 63 66 -64 0
520 -519 -63 -66 -64 0
522 519 -63 0
522 -519 63 0
-522 519 63 0
-522 -519 -63 0
521 66 -64 0
521 -66 64 0
-521 66 64 0
-521 -66 -64 0
-523 522 0
-523 62 0
-523 61 -64 0
-523 -61 64 0
523 -522 61 64 -62 0
523 -522 -61 -64 -62 0
525 522 -61 0
525 -522 61 0
-525 522 61 0
-525 -522 -61 0
524 64 -62 0
524 -64 62 0
-524 64 62 0
-524 -64 -62 0
-526 525 0
-526 60 0
-526 59 -62 0
-526 -59 62 0
526 -525 59 62 -60 0
526 -525 -59 -62 -60 0
528 525 -59 0
528 -525 59 0
-528 525 59 0
-528 -525 -59 0
527 62 -60 0
527 -62 60 0
-527 62 60 0
-527 -62 -60 0
-529 528 0
-529 58 0
-529 57 -60 0
-529 -57 60 0
529 -528 57 60 -58 0
529 -528 -57 -60 -58 0
531 528 -57 0
531 -528 57 0
-531 528 57 0
-531 -528 -57 0
530 60 -58 0
530 -60 58 0
-530 60 58 0
-530 -60 -58 0
-532 531 0
-532 56 0
-532 55 -58 0
-532 -55 58 0
532 -531 55 58 -56 0
532 -531 -55 -58 -56 0
534 531 -55 0
534 -531 55 0
-534 531 55 0
-534 -531 -55 0
533 58 -56 0
533 -58 56 0
-533 58 56 0
-533 -58 -56 0
-535 534 0
-535 54 0
-535 53 -56 0
-535 -53 56 0
535 -534 53 56 -54 0
535 -534 -53 -56 -54 0
537 534 -53 0
537 -534 53 0
-537 534 53 0
-537 -534 -53 0
536 56 -54 0
536 -56 54 0
-536 56 54 0
-536 -56 -54 0
-538 537 0
-538 52 0
-538 51 -54 0
-538 -51 54 0
538 -537 51 54 -52 0
538 -537 -51 -54 -52 0
540 537 -51 0
540 -537 51 0
-540 537 51 0
-540 -537 -51 0
539 54 -52 0
539 -54 52 0
-539 54 52 0
-539 -54 -52 0
-541 540 0
-541 50 0
-541 49 -52 0
-541 -49 52 0
541 -540 49 52 -50 0
541 -540 -49 -52 -50 0
543 540 -49 0
543 -540 49 0
-543 540 49 0
-543 -540 -49 0
542 52 -50 0
542 -52 50 0
-542 52 50 0
-542 -52 -50 0
-544 543 0
-544 48 0
-544 47 -50 0
-544 -47 50 0
544 -543 47 50 -48 0
544 -543 -47 -50 -48 0
546 543 -47 0
546 -543 47 0
-546 543 47 0
-546 -543 -47 0
545 50 -48 0
545 -50 48 0
-545 50 48 0
-545 -50 -48 0
-547 546 0
-547 46 0
-547 45 -48 0
-547 -45 48 0
547 -546 45 48 -46 0
547 -546 -45 -48 -46 0
549 546 -45 0
549 -546 45 0
-549 546 45 0
-549 -546 -45 0
548 48 -46 0
548 -48 46 0
-548 48 46 0
-548 -48 -46 0
-550 549 0
-550 44 0
-550 43 -46 0
-550 -43 46 0
550 -549 43 46 -44 0
550 -549 -43 -46 -44 0
552 549 -43 0
552 -549 43 0
-552 549 43 0
-552 -549 -43 0
551 46 -44 0
551 -46 44 0
-551 46 44 0
-551 -46 -44 0
-553 552 0
-553 42 0
-553 41 -44 0
-553 -41 44 0
553 -552 41 44 -42 0
553 -552 -41 -44 -42 0
555 552 -41 0
555 -552 41 0
-555 552 41 0
-555 -552 -41 0
554 44 -42 0
554 -44 42 0
-554 44 42 0
-554 -44 -42 0
-556 555 0
-556 40 0
-556 39 -42 0
-556 -39 42 0
556 -555 39 42 -40 0
556 -555 -39 -42 -40 0
558 555 -39 0
558 -555 39 0
-558 555 39 0
-558 -555 -39 0
557 42 -40 0
557 -42 40 0
-557 42 40 0
-557 -42 -40 0
-559 558 0
-559 38 0
-559 37 -40 0
-559 -37 40 0
559 -558 37 40 -38 0
559 -558 -37 -40 -38 0
561 558 -37 0
561 -558 37 0
-561 558 37 0
-561 -558 -37 0
560 40 -38 0
560 -40 38 0
-560 40 38 0
-560 -40 -38 0
-562 561 0
-562 36 0
-562 35 -38 0
-562 -35 38 0
562 -561 35 38 -36 0
562 -561 -35 -38 -36 0
564 561 -35 0
564 -561 35 0
-564 561 35 0
-564 -561 -35 0
563 38 -36 0
563 -38 36 0
-563 38 36 0
-563 -38 -36 0
-565 564 0
-565 34 0
-565 33 -36 0
-565 -33 36 0
565 -564 33 36 -34 0
565 -564 -33 -36 -34 0
567 564 -33 0
567 -564 33 0
-567 564 33 0
-567 -564 -33 0
566 36 -34 0
566 -36 34 0
-566 36 34 0
-566 -36 -34 0
-568 567 0
-568 32 0
-568 31 -34 0
-568 -31 34 0
568 -567 31 34 -32 0
568 -567 -31 -34 -32 0
570 567 -31 0
570 -567 31 0
-570 567 31 0
-570 -567 -31 0
569 34 -32 0
569 -34 32 0
-569 34 32 0
-569 -34 -32 0
-571 570 0
-571 30 0
-571 29 -32 0
-571 -29 32 0
571 -570 29 32 -30 0
571 -570 -29 -32 -30 0
573 570 -29 0
573 -570 29 0
-573 570 29 0
-573 -570 -29 0
572 32 -30 0
572 -32 30 0
-572 32 30 0
-572 -32 -30 0
-574 573 0
-574 28 0
-574 27 -30 0
-574 -27 30 0
574 -573 27 30 -28 0
574 -573 -27 -30 -28 0
576 573 -27 0
576 -573 27 0
-576 573 27 0
-576 -573 -27 0
575 30 -28 0
575 -30 28 0
-575 30 28 0
-575 -30 -28 0
-577 576 0
-577 26 0
-577 25 -28 0
-577 -25 28 0
577 -576 25 28 -26 0
577 -576 -25 -28 -26 0
579 576 -25 0
579 -576 25 0
-579 576 25 0
-579 -576 -25 0
578 28 -26 0
578 -28 26 0
-578 28 26 0
-578 -28 -26 0
-580 579 0
-580 24 0
-580 23 -26 0
-580 -23 26 0
580 -579 23 26 -24 0
580 -579 -23 -26 -24 0
582 579 -23 0
582 -579 23 0
-582 579 23 0
-582 -579 -23 0
581 26 -24 0
581 -26 24 0
-581 26 24 0
-581 -26 -24 0
-583 582 0
-583 22 0
-583 21 -24 0
-583 -21 24 0
583 -582 21 24 -22 0
583 -582 -21 -24 -22 0
585 582 -21 0
585 -582 21 0
-585 582 21 0
-585 -582 -21 0
584 24 -22 0
584 -24 22 0
-584 24 22 0
-584 -24 -22 0
-586 585 0
-586 20 0
-586 19 -22 0
-586 -19 22 0
586 -585 19 22 -20 0
586 -585 -19 -22 -20 0
588 585 -19 0
588 -585 19 0
-588 585 19 0
-588 -585 -19 0
587 22 -20 0
587 -22 20 0
-587 22 20 0
-587 -22 -20 0
-589 588 0
-589 18 0
-589 17 -20 0
-589 -17 20 0
589 -588 17 20 -18 0
589 -588 -17 -20 -18 0
591 588 -17 0
591 -588 17 0
-591 588 17 0
-591 -588 -17 0
590 20 -18 0
590 -20 18 0
-590 20 18 0
-590 -20 -18 0
-592 591 0
-592 16 0
-592 15 -18 0
-592 -15 18 0
592 -591 15 18 -16 0
592 -591 -15 -18 -16 0
594 591 -15 0
594 -591 15 0
-594 591 15 0
-594 -591 -15 0
593 18 -16 0
593 -18 16 0
-593 18 16 0
-593 -18 -16 0
-595 594 0
-595 14 0
-595 13 -16 0
-595 -13 16 0
595 -594 13 16 -14 0
595 -594 -13 -16 -14 0
597 594 -13 0
597 -594 13 0
-597 594 13 0
-597 -594 -13 0
596 16 -14 0
596 -16 14 0
-596 16 14 0
-596 -16 -14 0
-598 597 0
-598 12 0
-598 11 -14 0
-598 -11 14 0
598 -597 11 14 -12 0
598 -597 -11 -14 -12 0
600 597 -11 0
600 -597 11 0
-600 597 11 0
-600 -597 -11 0
599 14 -12 0
599 -14 12 0
-599 14 12 0
-599 -14 -12 0
-601 600 0
-601 10 0
-601 9 -12 0
-601 -9 12 0
601 -600 9 12 -10 0
601 -600 -9 -12 -10 0
603 600 -9 0
603 -600 9 0
-603 600 9 0
-603 -600 -9 0
602 12 -10 0
602 -12 10 0
-602 12 10 0
-602 -12 -10 0
-604 603 0
-604 8 0
-604 7 -10 0
-604 -7 10 0
604 -603 7 10 -8 0
604 -603 -7 -10 -8 0
606 603 -7 0
606 -603 7 0
-606 603 7 0
-606 -603 -7 0
605 10 -8 0
605 -10 8 0
-605 10 8 0
-605 -10 -8 0
-607 606 0
-607 6 0
-607 5 -8 0
-607 -5 8 0
607 -606 5 8 -6 0
607 -606 -5 -8 -6 0
609 606 -5 0
609 -606 5 0
-609 606 5 0
-609 -606 -5 0
608 8 -6 0
608 -8 6 0
-608 8 6 0
-608 -8 -6 0
-610 609 0
-610 4 0
-610 3 -6 0
-610 -3 6 0
610 -609 3 6 -4 0
610 -609 -3 -6 -4 0
612 609 -3 0
612 -609 3 0
-612 609 3 0
-612 -609 -3 0
611 6 -4 0
611 -6 4 0
-611 6 4 0
-611 -6 -4 0
-613 612 0
-613 2 0
-613 1 -4 0
-613 -1 4 0
613 -612 1 4 -2 0
613 -612 -1 -4 -2 0
615 612 -1 0
615 -612 1 0
-615 612 1 0
-615 -612 -1 0
614 4 -2 0
614 -4 2 0
-614 4 2 0
-614 -4 -2 0
-615 0
-612 0
-614 0
-609 0
-611 0
-606 0
-608 0
-603 0
-605 0
-600 0
-602 0
-597 0
-599 0
-594 0
-596 0
-591 0
-593 0
-588 0
-590 0
-585 0
-587 0
-582 0
-584 0
-579 0
-581 0
-576 0
-578 0
-573 0
-575 0
-570 0
-572 0
-567 0
-569 0
-564 0
-566 0
-561 0
-563 0
-558 0
-560 0
-555 0
-557 0
-552 0
-554 0
-549 0
-551 0
-546 0
-548 0
-543 0
-545 0
-540 0
-542 0
-537 0
-539 0
-534 0
-536 0
-531 0
-533 0
-528 0
-530 0
-525 0
-527 0
-522 0
-524 0
-519 0
-521 0
-516 0
-518 0
-513 0
-515 0
-510 0
-512 0
-507 0
-509 0
-504 0
-506 0
-501 0
-503 0
-498 0
-500 0
-495 0
-497 0
-492 0
-494 0
-489 0
-491 0
-486 0
-488 0
-483 0
-485 0
-480 0
-482 0
-477 0
-479 0
-474 0
-476 0
-471 0
-473 0
-468 0
-470 0
-465 0
-467 0
-462 0
-464 0
-459 0
-461 0
-456 0
-458 0
-453 0
-455 0
-450 0
-452 0
-447 0
-449 0
-444 0
-446 0
-441 0
-443 0
-438 0
-440 0
-435 0
-437 0
-432 0
-434 0
-429 0
-431 0
-426 0
-428 0
-423 0
-425 0
-420 0
-422 0
-417 0
-419 0
-414 0
-416 0
-411 0
-413 0
-408 0
-410 0
-405 0
-407 0
-402 0
-404 0
-399 0
-401 0
-396 0
-398 0
-393 0
-395 0
-390 0
-392 0
-387 0
-389 0
-384 0
-386 0
-381 0
-383 0
-378 0
-380 0
-375 0
-377 0
-372 0
-374 0
-369 0
-371 0
-366 0
-368 0
-363 0
-365 0
-360 0
-362 0
-357 0
-359 0
-354 0
-356 0
-351 0
-353 0
-348 0
-350 0
-345 0
-347 0
-342 0
-344 0
-339 0
-341 0
-336 0
-338 0
-333 0
-335 0
-330 0
-332 0
-327 0
-329 0
-324 0
-326 0
-321 0
-323 0
-318 0
-320 0
-315 0
-317 0
-312 0
-314 0
-309 0
-311 0
-306 0
-308 0
-303 0
-305 0
-300 0
-302 0
-297 0
-299 0
-294 0
-296 0
-291 0
-293 0
-288 0
-290 0
-285 0
-287 0
-282 0
-284 0
-279 0
-281 0
-276 0
-278 0
-273 0
-275 0
-270 0
-272 0
-267 0
-269 0
-264 0
-266 0
-261 0
-263 0
-258 0
-260 0
-255 0
-257 0
-248 0
-254 0
